
Gurobi 8.1.0 (mac64, Python) logging started Mon Nov 26 03:35:44 2018


Gurobi 8.1.0 (mac64, Python) logging started Mon Nov 26 03:35:44 2018


Gurobi 8.1.0 (mac64, Python) logging started Mon Nov 26 03:35:44 2018


Gurobi 8.1.0 (mac64, Python) logging started Mon Nov 26 04:03:21 2018


Gurobi 8.1.0 (mac64, Python) logging started Mon Nov 26 04:03:21 2018


Gurobi 8.1.0 (mac64, Python) logging started Mon Nov 26 04:03:21 2018


Gurobi 8.1.0 (mac64, Python) logging started Mon Nov 26 05:23:43 2018


Gurobi 8.1.0 (mac64, Python) logging started Mon Nov 26 05:23:43 2018


Gurobi 8.1.0 (mac64, Python) logging started Mon Nov 26 05:23:43 2018


Gurobi 8.1.0 (mac64, Python) logging started Mon Nov 26 05:25:03 2018


Gurobi 8.1.0 (mac64, Python) logging started Mon Nov 26 05:25:03 2018


Gurobi 8.1.0 (mac64, Python) logging started Mon Nov 26 05:25:03 2018


Gurobi 8.1.0 (mac64, Python) logging started Mon Nov 26 05:25:47 2018


Gurobi 8.1.0 (mac64, Python) logging started Mon Nov 26 05:25:47 2018


Gurobi 8.1.0 (mac64, Python) logging started Mon Nov 26 05:25:47 2018


Gurobi 8.1.0 (mac64, Python) logging started Mon Nov 26 05:26:32 2018


Gurobi 8.1.0 (mac64, Python) logging started Mon Nov 26 05:26:32 2018


Gurobi 8.1.0 (mac64, Python) logging started Mon Nov 26 05:26:32 2018


Gurobi 8.1.0 (mac64, Python) logging started Mon Nov 26 05:32:17 2018


Gurobi 8.1.0 (mac64, Python) logging started Mon Nov 26 05:32:17 2018


Gurobi 8.1.0 (mac64, Python) logging started Mon Nov 26 05:32:17 2018


Gurobi 8.1.0 (mac64, Python) logging started Mon Nov 26 05:47:08 2018


Gurobi 8.1.0 (mac64, Python) logging started Mon Nov 26 05:47:08 2018


Gurobi 8.1.0 (mac64, Python) logging started Mon Nov 26 05:47:08 2018


Gurobi 8.1.0 (mac64, Python) logging started Mon Nov 26 05:47:08 2018


Gurobi 8.1.0 (mac64, Python) logging started Mon Nov 26 05:47:08 2018


Gurobi 8.1.0 (mac64, Python) logging started Mon Nov 26 05:47:08 2018


Gurobi 8.1.0 (mac64, Python) logging started Mon Nov 26 05:47:08 2018


Gurobi 8.1.0 (mac64, Python) logging started Mon Nov 26 05:47:08 2018


Gurobi 8.1.0 (mac64, Python) logging started Mon Nov 26 06:13:28 2018


Gurobi 8.1.0 (mac64) logging started Mon Nov 26 06:13:28 2018


ERROR 10009: User name mismatch (licensed to 'vyvyen', current user is 'root') - license file '/Users/vyvyen/gurobi.lic'


Gurobi 8.1.0 (mac64, Python) logging started Mon Nov 26 06:16:44 2018


Gurobi 8.1.0 (mac64) logging started Mon Nov 26 06:16:44 2018


ERROR 10009: User name mismatch (licensed to 'vyvyen', current user is 'root') - license file '/Users/vyvyen/gurobi.lic'


Gurobi 8.1.0 (mac64, Python) logging started Mon Nov 26 06:17:35 2018


Gurobi 8.1.0 (mac64) logging started Mon Nov 26 06:17:35 2018


ERROR 10009: User name mismatch (licensed to 'vyvyen', current user is 'root') - license file '/Users/vyvyen/gurobi.lic'


Gurobi 8.1.0 (mac64, Python) logging started Mon Nov 26 09:30:45 2018


Gurobi 8.1.0 (mac64, Python) logging started Mon Nov 26 09:31:50 2018


Gurobi 8.1.0 (mac64, Python) logging started Mon Nov 26 12:02:19 2018


Gurobi 8.1.0 (mac64, Python) logging started Tue Nov 27 15:13:13 2018

